p edge 1077 1052
e 1 2
e 1 3
e 1 4
e 1 5
e 1 6
e 1 7
e 1 8
e 1 9
e 1 10
e 1 11
e 1 12
e 1 13
e 14 15
e 14 16
e 14 17
e 14 18
e 14 19
e 14 20
e 14 21
e 14 22
e 14 23
e 14 24
e 14 25
e 14 26
e 14 27
e 14 28
e 14 29
e 14 30
e 14 31
e 14 32
e 14 33
e 14 34
e 14 35
e 14 36
e 14 37
e 14 38
e 14 39
e 14 40
e 14 41
e 14 42
e 14 43
e 14 44
e 14 45
e 14 46
e 14 47
e 14 48
e 14 49
e 14 50
e 14 51
e 14 52
e 14 53
e 14 54
e 14 55
e 14 56
e 14 57
e 14 58
e 14 59
e 14 60
e 14 61
e 14 62
e 14 63
e 14 64
e 14 65
e 14 66
e 14 67
e 68 69
e 68 70
e 68 71
e 68 72
e 68 73
e 68 74
e 68 75
e 68 76
e 68 77
e 68 78
e 68 79
e 68 80
e 68 81
e 68 82
e 68 83
e 68 84
e 68 85
e 68 86
e 68 87
e 68 88
e 68 89
e 68 90
e 68 91
e 68 92
e 68 93
e 68 94
e 68 95
e 68 96
e 68 97
e 68 98
e 68 99
e 68 100
e 68 101
e 68 102
e 68 103
e 68 104
e 68 105
e 68 106
e 68 107
e 68 108
e 68 109
e 68 110
e 68 111
e 68 112
e 68 113
e 68 114
e 68 115
e 68 116
e 68 117
e 68 118
e 68 119
e 68 120
e 68 121
e 68 122
e 68 123
e 68 124
e 68 125
e 68 126
e 68 127
e 68 128
e 68 129
e 68 130
e 68 131
e 68 132
e 68 133
e 68 134
e 68 135
e 68 136
e 68 137
e 68 138
e 68 139
e 68 140
e 68 141
e 68 142
e 68 143
e 144 145
e 144 146
e 144 147
e 144 148
e 144 149
e 144 150
e 144 151
e 144 152
e 144 153
e 144 154
e 144 155
e 144 156
e 144 157
e 144 158
e 144 159
e 144 160
e 144 161
e 144 162
e 144 163
e 144 164
e 144 165
e 144 166
e 144 167
e 144 168
e 144 169
e 144 170
e 144 171
e 144 172
e 144 173
e 144 174
e 144 175
e 144 176
e 144 177
e 144 178
e 144 179
e 144 180
e 144 181
e 144 182
e 144 183
e 144 184
e 144 185
e 144 186
e 144 187
e 144 188
e 144 189
e 144 190
e 144 191
e 144 192
e 144 193
e 144 194
e 144 195
e 144 196
e 144 197
e 144 198
e 144 199
e 144 200
e 144 201
e 144 202
e 144 203
e 144 204
e 144 205
e 144 206
e 144 207
e 144 208
e 144 209
e 144 210
e 144 211
e 144 212
e 144 213
e 144 214
e 144 215
e 144 216
e 217 218
e 217 219
e 217 220
e 217 221
e 217 222
e 217 223
e 217 224
e 217 225
e 217 226
e 217 227
e 217 228
e 217 229
e 230 231
e 230 232
e 230 233
e 230 234
e 230 235
e 230 236
e 230 237
e 230 238
e 230 239
e 230 240
e 230 241
e 230 242
e 230 243
e 230 244
e 230 245
e 230 246
e 230 247
e 230 248
e 230 249
e 230 250
e 230 251
e 230 252
e 230 253
e 230 254
e 230 255
e 256 257
e 256 258
e 256 259
e 256 260
e 256 261
e 256 262
e 256 263
e 256 264
e 256 265
e 256 266
e 256 267
e 256 268
e 256 269
e 256 270
e 256 271
e 256 272
e 256 273
e 256 274
e 256 275
e 256 276
e 256 277
e 256 278
e 256 279
e 256 280
e 256 281
e 256 282
e 256 283
e 256 284
e 256 285
e 256 286
e 256 287
e 288 289
e 288 290
e 288 291
e 288 292
e 288 293
e 288 294
e 288 295
e 288 296
e 288 297
e 288 298
e 288 299
e 288 300
e 288 301
e 288 302
e 288 303
e 288 304
e 288 305
e 288 306
e 307 308
e 307 309
e 307 310
e 307 311
e 307 312
e 307 313
e 307 314
e 307 315
e 307 316
e 307 317
e 307 318
e 307 319
e 307 320
e 307 321
e 307 322
e 307 323
e 307 324
e 307 325
e 307 326
e 307 327
e 307 328
e 307 329
e 307 330
e 307 331
e 307 332
e 307 333
e 307 334
e 307 335
e 307 336
e 337 338
e 337 339
e 337 340
e 337 341
e 337 342
e 337 343
e 337 344
e 337 345
e 337 346
e 337 347
e 337 348
e 337 349
e 337 350
e 337 351
e 337 352
e 337 353
e 337 354
e 337 355
e 337 356
e 337 357
e 337 358
e 337 359
e 337 360
e 337 361
e 337 362
e 337 363
e 337 364
e 337 365
e 337 366
e 337 367
e 337 368
e 337 369
e 337 370
e 337 371
e 372 373
e 372 374
e 372 375
e 372 376
e 372 377
e 372 378
e 372 379
e 372 380
e 372 381
e 372 382
e 372 383
e 372 384
e 372 385
e 372 386
e 372 387
e 372 388
e 372 389
e 372 390
e 372 391
e 372 392
e 372 393
e 372 394
e 372 395
e 372 396
e 372 397
e 372 398
e 372 399
e 372 400
e 372 401
e 372 402
e 372 403
e 372 404
e 372 405
e 372 406
e 372 407
e 408 409
e 408 410
e 408 411
e 408 412
e 408 413
e 408 414
e 408 415
e 408 416
e 408 417
e 408 418
e 408 419
e 408 420
e 408 421
e 408 422
e 408 423
e 408 424
e 408 425
e 408 426
e 408 427
e 408 428
e 408 429
e 408 430
e 408 431
e 408 432
e 408 433
e 408 434
e 408 435
e 408 436
e 408 437
e 408 438
e 408 439
e 408 440
e 408 441
e 408 442
e 408 443
e 408 444
e 408 445
e 408 446
e 408 447
e 408 448
e 408 449
e 408 450
e 408 451
e 408 452
e 408 453
e 408 454
e 408 455
e 408 456
e 408 457
e 408 458
e 408 459
e 408 460
e 461 462
e 461 463
e 461 464
e 461 465
e 461 466
e 461 467
e 461 468
e 461 469
e 461 470
e 461 471
e 461 472
e 461 473
e 461 474
e 461 475
e 461 476
e 461 477
e 461 478
e 461 479
e 461 480
e 461 481
e 461 482
e 461 483
e 461 484
e 461 485
e 461 486
e 461 487
e 461 488
e 461 489
e 461 490
e 461 491
e 461 492
e 461 493
e 461 494
e 461 495
e 461 496
e 461 497
e 461 498
e 461 499
e 461 500
e 461 501
e 461 502
e 461 503
e 461 504
e 461 505
e 506 507
e 506 508
e 506 509
e 506 510
e 506 511
e 506 512
e 506 513
e 506 514
e 506 515
e 506 516
e 506 517
e 506 518
e 506 519
e 506 520
e 506 521
e 506 522
e 506 523
e 506 524
e 506 525
e 506 526
e 506 527
e 506 528
e 506 529
e 506 530
e 506 531
e 506 532
e 533 534
e 533 535
e 533 536
e 533 537
e 533 538
e 533 539
e 533 540
e 533 541
e 533 542
e 533 543
e 533 544
e 533 545
e 533 546
e 533 547
e 533 548
e 533 549
e 533 550
e 533 551
e 533 552
e 533 553
e 533 554
e 533 555
e 533 556
e 533 557
e 533 558
e 533 559
e 533 560
e 533 561
e 533 562
e 533 563
e 533 564
e 533 565
e 533 566
e 533 567
e 533 568
e 533 569
e 533 570
e 533 571
e 533 572
e 533 573
e 533 574
e 533 575
e 533 576
e 533 577
e 533 578
e 533 579
e 533 580
e 533 581
e 533 582
e 583 584
e 583 585
e 583 586
e 583 587
e 583 588
e 583 589
e 583 590
e 583 591
e 583 592
e 583 593
e 583 594
e 583 595
e 583 596
e 583 597
e 583 598
e 583 599
e 583 600
e 583 601
e 583 602
e 583 603
e 583 604
e 583 605
e 583 606
e 583 607
e 583 608
e 583 609
e 583 610
e 583 611
e 583 612
e 583 613
e 583 614
e 583 615
e 583 616
e 583 617
e 583 618
e 583 619
e 583 620
e 583 621
e 583 622
e 583 623
e 583 624
e 583 625
e 583 626
e 583 627
e 583 628
e 583 629
e 583 630
e 583 631
e 583 632
e 583 633
e 583 634
e 583 635
e 583 636
e 583 637
e 583 638
e 583 639
e 583 640
e 583 641
e 642 643
e 642 644
e 642 645
e 642 646
e 642 647
e 642 648
e 642 649
e 642 650
e 642 651
e 642 652
e 642 653
e 642 654
e 642 655
e 642 656
e 642 657
e 642 658
e 642 659
e 642 660
e 642 661
e 642 662
e 642 663
e 642 664
e 642 665
e 642 666
e 642 667
e 642 668
e 642 669
e 642 670
e 642 671
e 642 672
e 642 673
e 642 674
e 642 675
e 642 676
e 642 677
e 642 678
e 642 679
e 642 680
e 642 681
e 642 682
e 642 683
e 642 684
e 642 685
e 642 686
e 687 688
e 687 689
e 687 690
e 687 691
e 687 692
e 687 693
e 687 694
e 687 695
e 687 696
e 687 697
e 687 698
e 687 699
e 687 700
e 687 701
e 687 702
e 687 703
e 687 704
e 687 705
e 687 706
e 687 707
e 687 708
e 687 709
e 687 710
e 687 711
e 687 712
e 687 713
e 687 714
e 687 715
e 687 716
e 687 717
e 687 718
e 687 719
e 687 720
e 687 721
e 687 722
e 687 723
e 687 724
e 687 725
e 687 726
e 687 727
e 687 728
e 687 729
e 687 730
e 687 731
e 687 732
e 687 733
e 687 734
e 687 735
e 687 736
e 687 737
e 687 738
e 687 739
e 687 740
e 687 741
e 687 742
e 687 743
e 687 744
e 687 745
e 687 746
e 687 747
e 687 748
e 687 749
e 687 750
e 687 751
e 687 752
e 687 753
e 687 754
e 687 755
e 687 756
e 687 757
e 687 758
e 687 759
e 687 760
e 687 761
e 687 762
e 687 763
e 687 764
e 687 765
e 687 766
e 687 767
e 687 768
e 687 769
e 687 770
e 687 771
e 687 772
e 687 773
e 687 774
e 687 775
e 776 777
e 776 778
e 776 779
e 776 780
e 776 781
e 776 782
e 776 783
e 776 784
e 776 785
e 776 786
e 776 787
e 776 788
e 776 789
e 776 790
e 776 791
e 776 792
e 776 793
e 776 794
e 776 795
e 776 796
e 776 797
e 776 798
e 776 799
e 776 800
e 776 801
e 776 802
e 776 803
e 776 804
e 776 805
e 776 806
e 776 807
e 776 808
e 776 809
e 810 811
e 810 812
e 810 813
e 810 814
e 810 815
e 810 816
e 810 817
e 810 818
e 810 819
e 810 820
e 810 821
e 810 822
e 810 823
e 810 824
e 810 825
e 810 826
e 810 827
e 810 828
e 810 829
e 810 830
e 810 831
e 810 832
e 810 833
e 810 834
e 810 835
e 810 836
e 810 837
e 810 838
e 810 839
e 810 840
e 810 841
e 810 842
e 810 843
e 810 844
e 810 845
e 810 846
e 847 848
e 847 849
e 847 850
e 847 851
e 847 852
e 847 853
e 847 854
e 847 855
e 847 856
e 847 857
e 847 858
e 847 859
e 847 860
e 847 861
e 847 862
e 847 863
e 847 864
e 847 865
e 847 866
e 847 867
e 847 868
e 847 869
e 847 870
e 847 871
e 847 872
e 847 873
e 847 874
e 847 875
e 847 876
e 847 877
e 847 878
e 847 879
e 847 880
e 847 881
e 847 882
e 847 883
e 847 884
e 847 885
e 847 886
e 847 887
e 847 888
e 847 889
e 847 890
e 847 891
e 847 892
e 847 893
e 847 894
e 847 895
e 847 896
e 847 897
e 847 898
e 847 899
e 847 900
e 847 901
e 847 902
e 847 903
e 847 904
e 847 905
e 847 906
e 847 907
e 847 908
e 847 909
e 847 910
e 847 911
e 847 912
e 847 913
e 847 914
e 847 915
e 847 916
e 917 918
e 917 919
e 917 920
e 917 921
e 917 922
e 917 923
e 917 924
e 917 925
e 917 926
e 917 927
e 917 928
e 917 929
e 917 930
e 917 931
e 917 932
e 917 933
e 917 934
e 917 935
e 917 936
e 917 937
e 917 938
e 917 939
e 917 940
e 917 941
e 917 942
e 917 943
e 917 944
e 917 945
e 917 946
e 917 947
e 917 948
e 917 949
e 917 950
e 917 951
e 917 952
e 917 953
e 917 954
e 917 955
e 917 956
e 917 957
e 917 958
e 917 959
e 960 961
e 960 962
e 960 963
e 960 964
e 960 965
e 960 966
e 960 967
e 960 968
e 960 969
e 960 970
e 960 971
e 960 972
e 960 973
e 960 974
e 960 975
e 960 976
e 960 977
e 960 978
e 960 979
e 960 980
e 960 981
e 960 982
e 960 983
e 960 984
e 960 985
e 960 986
e 960 987
e 960 988
e 960 989
e 960 990
e 960 991
e 960 992
e 960 993
e 960 994
e 960 995
e 960 996
e 960 997
e 960 998
e 960 999
e 960 1000
e 960 1001
e 960 1002
e 960 1003
e 960 1004
e 960 1005
e 960 1006
e 1007 1008
e 1007 1009
e 1007 1010
e 1007 1011
e 1007 1012
e 1007 1013
e 1007 1014
e 1007 1015
e 1007 1016
e 1007 1017
e 1007 1018
e 1007 1019
e 1007 1020
e 1007 1021
e 1007 1022
e 1007 1023
e 1007 1024
e 1007 1025
e 1007 1026
e 1007 1027
e 1007 1028
e 1007 1029
e 1007 1030
e 1007 1031
e 1007 1032
e 1007 1033
e 1007 1034
e 1035 1036
e 1035 1037
e 1035 1038
e 1035 1039
e 1035 1040
e 1035 1041
e 1035 1042
e 1035 1043
e 1035 1044
e 1035 1045
e 1035 1046
e 1035 1047
e 1035 1048
e 1035 1049
e 1035 1050
e 1035 1051
e 1035 1052
e 1035 1053
e 1035 1054
e 1035 1055
e 1035 1056
e 1035 1057
e 1035 1058
e 1035 1059
e 1035 1060
e 1035 1061
e 1035 1062
e 1035 1063
e 1035 1064
e 1035 1065
e 1035 1066
e 1035 1067
e 1035 1068
e 1035 1069
e 1035 1070
e 1035 1071
e 1035 1072
e 1035 1073
e 1035 1074
e 1035 1075
e 1035 1076
e 1035 1077
